p cnf 19 24
9 -12 -17 0
-3 14 0
1 19 17 0
-1 -8 0
2 9 7 19 0
-9 -15 11 -6 0
-15 10 0
6 9 10 11 0
9 14 0
-2 16 -15 4 0
-13 -12 -10 19 -1 4 -17 -11 5 6 8 9 -15 7 -18 3 0
-9 -11 -8 -2 -1 -16 -6 5 -7 13 10 18 -17 4 19 -14 0
-6 1 8 -12 15 10 -3 -14 0
-8 -2 1 15 -11 0
2 11 -8 0
11 18 -8 12 -13 15 -9 2 19 -14 -1 -7 -3 10 -4 -5 -17 6 0
-3 -13 11 -10 19 -16 8 12 -9 -1 0
5 15 9 3 -10 12 17 4 -14 8 0
10 13 4 0
-16 17 -8 0
18 -2 -10 16 11 14 13 -19 -1 -17 -15 -4 -6 12 5 -3 -7 0
10 1 -9 -13 -12 19 17 -14 -2 0
-11 -18 -9 15 -4 10 8 -19 5 -14 17 1 -13 16 0
-3 -5 -19 0
